datasets/2-dimensional/CL_02_25_05.vbp
2
1000 1000 
25
57 736 30
126 294 72
145 414 4
671 319 88
592 563 54
132 36 64
843 959 90
618 889 26
676 715 94
575 658 28
202 275 72
780 453 49
864 416 54
344 718 19
442 250 28
712 232 61
45 221 84
661 105 23
118 106 67
304 780 53
440 18 54
83 39 16
121 399 9
776 988 54
605 30 77
