datasets/2-dimensional/CL_02_25_05.txt
1000 1000 
0 30 57 736 
1 72 126 294 
2 4 145 414 
3 88 671 319 
4 54 592 563 
5 64 132 36 
6 90 843 959 
7 26 618 889 
8 94 676 715 
9 28 575 658 
10 72 202 275 
11 49 780 453 
12 54 864 416 
13 19 344 718 
14 28 442 250 
15 61 712 232 
16 84 45 221 
17 23 661 105 
18 67 118 106 
19 53 304 780 
20 54 440 18 
21 16 83 39 
22 9 121 399 
23 54 776 988 
24 77 605 30 
